% seed = 9008136

mint = 37;
% maxt = 99;

nActs = 22;
dur = [0,8,7,6,4,3,6,5,1,4,2,2,7,6,8,2,2,9,8,7,2,0];

nSkills = 4;
sreq = [| 0,0,0,0,
	| 0,3,1,2,
	| 3,2,0,3,
	| 1,2,3,0,
	| 1,1,2,0,
	| 2,3,0,1,
	| 0,3,1,2,
	| 1,3,1,0,
	| 1,2,0,1,
	| 0,2,1,2,
	| 3,3,0,2,
	| 0,2,1,3,
	| 0,3,2,2,
	| 2,0,2,3,
	| 0,3,2,2,
	| 3,0,2,2,
	| 1,0,1,3,
	| 1,2,1,0,
	| 3,1,3,0,
	| 2,3,3,0,
	| 1,2,0,1,
	| 0,0,0,0, |];

nResources = 20;
mastery = [| false,false,false,true,
	| false,true,false,true,
	| true,false,true,true,
	| true,true,false,false,
	| false,false,true,true,
	| true,true,false,false,
	| true,false,true,true,
	| true,true,false,false,
	| false,true,false,false,
	| true,false,true,false,
	| true,false,false,true,
	| false,false,false,true,
	| true,true,false,true,
	| true,false,false,false,
	| false,true,false,true,
	| true,true,true,false,
	| false,false,false,true,
	| false,true,true,true,
	| true,true,true,false,
	| false,false,false,true, |];

nPrecs = 31;
pred = [1,1,1,2,2,3,4,4,4,5,5,6,7,7,8,9,9,10,11,12,13,14,15,16,17,17,18,18,19,20,21];
succ = [2,3,4,17,5,10,9,10,6,12,14,7,13,8,19,15,16,11,19,16,15,18,20,20,18,21,19,20,22,22,22];

nUnrels = 128;
unpred = [2,2,2,2,2,2,2,2,2,2,3,3,3,3,3,3,3,3,3,3,3,3,3,3,3,4,4,4,4,4,4,5,5,5,5,5,5,5,5,5,5,6,6,6,6,6,6,6,6,6,7,7,7,7,7,7,7,7,7,8,8,8,8,8,8,8,8,8,8,8,8,9,9,9,9,9,9,9,9,9,10,10,10,10,10,10,10,10,10,11,11,11,11,11,11,11,11,11,12,12,12,12,12,12,12,13,13,13,13,13,13,14,14,14,14,15,15,15,15,15,16,16,16,16,18,19,19,20];
unsucc = [3,4,6,7,8,9,10,11,13,15,4,5,6,7,8,9,12,13,14,15,16,17,18,20,21,5,12,14,17,18,21,6,7,8,9,10,11,13,15,17,21,9,10,11,12,14,16,17,18,21,9,10,11,12,14,16,17,18,21,9,10,11,12,13,14,15,16,17,18,20,21,10,11,12,13,14,17,18,19,21,12,13,14,15,16,17,18,20,21,12,13,14,15,16,17,18,20,21,13,14,15,17,18,19,21,14,16,17,18,19,21,15,16,17,21,16,17,18,19,21,17,18,19,21,21,20,21,21];

USEFUL_RES = [{},
	{1,2,3,4,5,6,7,8,9,10,11,12,13,15,16,17,18,19,20},
	{1,2,3,4,5,6,7,8,9,10,11,12,13,14,15,16,17,18,19,20},
	{2,3,4,5,6,7,8,9,10,11,13,14,15,16,18,19},
	{2,3,4,5,6,7,8,9,10,11,13,14,15,16,18,19},
	{1,2,3,4,5,6,7,8,9,10,11,12,13,14,15,16,17,18,19,20},
	{1,2,3,4,5,6,7,8,9,10,11,12,13,15,16,17,18,19,20},
	{2,3,4,5,6,7,8,9,10,11,13,14,15,16,18,19},
	{1,2,3,4,5,6,7,8,9,10,11,12,13,14,15,16,17,18,19,20},
	{1,2,3,4,5,6,7,8,9,10,11,12,13,15,16,17,18,19,20},
	{1,2,3,4,5,6,7,8,9,10,11,12,13,14,15,16,17,18,19,20},
	{1,2,3,4,5,6,7,8,9,10,11,12,13,15,16,17,18,19,20},
	{1,2,3,4,5,6,7,8,9,10,11,12,13,15,16,17,18,19,20},
	{1,2,3,4,5,6,7,8,10,11,12,13,14,15,16,17,18,19,20},
	{1,2,3,4,5,6,7,8,9,10,11,12,13,15,16,17,18,19,20},
	{1,2,3,4,5,6,7,8,10,11,12,13,14,15,16,17,18,19,20},
	{1,2,3,4,5,6,7,8,10,11,12,13,14,15,16,17,18,19,20},
	{2,3,4,5,6,7,8,9,10,11,13,14,15,16,18,19},
	{2,3,4,5,6,7,8,9,10,11,13,14,15,16,18,19},
	{2,3,4,5,6,7,8,9,10,11,13,14,15,16,18,19},
	{1,2,3,4,5,6,7,8,9,10,11,12,13,14,15,16,17,18,19,20},
	{}];

POTENTIAL_ACT = [{2,3,6,7,9,10,11,12,13,14,15,16,17,21},
	{2,3,4,5,6,7,8,9,10,11,12,13,14,15,16,17,18,19,20,21},
	{2,3,4,5,6,7,8,9,10,11,12,13,14,15,16,17,18,19,20,21},
	{2,3,4,5,6,7,8,9,10,11,12,13,14,15,16,17,18,19,20,21},
	{2,3,4,5,6,7,8,9,10,11,12,13,14,15,16,17,18,19,20,21},
	{2,3,4,5,6,7,8,9,10,11,12,13,14,15,16,17,18,19,20,21},
	{2,3,4,5,6,7,8,9,10,11,12,13,14,15,16,17,18,19,20,21},
	{2,3,4,5,6,7,8,9,10,11,12,13,14,15,16,17,18,19,20,21},
	{2,3,4,5,6,7,8,9,10,11,12,13,15,18,19,20,21},
	{2,3,4,5,6,7,8,9,10,11,12,13,14,15,16,17,18,19,20,21},
	{2,3,4,5,6,7,8,9,10,11,12,13,14,15,16,17,18,19,20,21},
	{2,3,6,7,9,10,11,12,13,14,15,16,17,21},
	{2,3,4,5,6,7,8,9,10,11,12,13,14,15,16,17,18,19,20,21},
	{3,4,5,6,8,9,11,14,16,17,18,19,20,21},
	{2,3,4,5,6,7,8,9,10,11,12,13,14,15,16,17,18,19,20,21},
	{2,3,4,5,6,7,8,9,10,11,12,13,14,15,16,17,18,19,20,21},
	{2,3,6,7,9,10,11,12,13,14,15,16,17,21},
	{2,3,4,5,6,7,8,9,10,11,12,13,14,15,16,17,18,19,20,21},
	{2,3,4,5,6,7,8,9,10,11,12,13,14,15,16,17,18,19,20,21},
	{2,3,6,7,9,10,11,12,13,14,15,16,17,21}];
